n = 90;
capacity = 100;
size = [79, 78, 77, 76, 76, 75, 75, 75, 75, 74, 74, 73, 72, 72, 72, 71, 71, 71, 71, 71, 70, 68, 67, 66, 66, 66, 65, 64, 63, 63, 62, 62, 61, 59, 59, 58, 58, 57, 56, 56, 56, 52, 52, 52, 51, 51, 47, 46, 45, 45, 44, 43, 42, 42, 40, 39, 38, 37, 35, 35, 34, 34, 34, 34, 33, 33, 33, 31, 31, 31, 31, 30, 29, 29, 28, 28, 27, 26, 26, 25, 25, 25, 24, 24, 24, 23, 21, 21, 21, 20];
